NAME : local_8
TYPE : ATSP
DIMENSION : 12
EDGE_WEIGHT_TYPE : EXPLICIT
EDGE_WEIGHT_FORMAT : FULL_MATRIX
EDGE_WEIGHT_SECTION
0 10000000 10000000 10000000 10000000 10000000 356 10000000 10000000 767 10000000 10000000 
0 0 10000000 765 544 10000000 10000000 176 10000000 734 703 777 
0 10000000 0 745 983 213 10000000 10000000 495 10000000 10000000 988 
0 765 745 0 369 813 10000000 632 10000000 960 10000000 351 
0 544 1016 369 0 10000000 950 391 10000000 596 810 290 
0 10000000 213 813 10000000 0 10000000 10000000 504 10000000 10000000 10000000 
0 10000000 10000000 10000000 959 10000000 0 10000000 10000000 444 678 10000000 
0 176 10000000 632 391 10000000 10000000 0 10000000 646 696 652 
0 10000000 495 10000000 10000000 504 10000000 10000000 0 10000000 10000000 10000000 
0 734 10000000 960 596 10000000 444 646 10000000 0 339 753 
0 703 10000000 10000000 810 10000000 678 696 10000000 339 0 991 
0 10000000 10000000 10000000 10000000 10000000 10000000 10000000 10000000 10000000 10000000 0 
EOF